
Gurobi 11.0.0 (win64) logging started Wed May 22 15:22:18 2024

Set parameter LogFile to value "./Results/StripPacking-ManyRuns/Logs/SUspb-111-StripPacking-15-0.log"
Set parameter TimeLimit to value 3600
Set parameter Cuts to value 1
Set parameter Presolve to value 1
Set parameter Heuristics to value 1
Set parameter LPWarmStart to value 2
Gurobi Optimizer version 11.0.0 build v11.0.0rc2 (win64 - Windows 10.0 (19045.2))

CPU model: Intel(R) Core(TM) i9-10980XE CPU @ 3.00GHz, instruction set [SSE2|AVX|AVX2|AVX512]
Thread count: 18 physical cores, 36 logical processors, using up to 18 threads

Optimize a model with 6840 rows, 451 columns and 19770 nonzeros
Model fingerprint: 0xc164fd0e
Variable types: 31 continuous, 420 integer (420 binary)
Coefficient statistics:
  Matrix range     [1e+00, 1e+04]
  Objective range  [1e+00, 1e+00]
  Bounds range     [1e+00, 1e+04]
  RHS range        [1e+00, 1e+04]
Using branch priorities.

Warning: Completing partial solution with 420 unfixed non-continuous variables out of 420
User MIP start produced solution with objective 72 (0.02s)
User MIP start produced solution with objective 72 (0.02s)
Loaded user MIP start with objective 72

Presolve removed 210 rows and 0 columns
Presolve time: 0.03s
Presolved: 6630 rows, 451 columns, 19934 nonzeros
Variable types: 31 continuous, 420 integer (420 binary)

Root relaxation: objective 3.700000e+01, 500 iterations, 0.05 seconds (0.05 work units)

    Nodes    |    Current Node    |     Objective Bounds      |     Work
 Expl Unexpl |  Obj  Depth IntInf | Incumbent    BestBd   Gap | It/Node Time

     0     0   37.00000    0   25   72.00000   37.00000  48.6%     -    0s
H    0     0                      68.0000000   37.00000  45.6%     -    0s
H    0     0                      61.0000000   37.00000  39.3%     -    1s
     0     0   37.00000    0   71   61.00000   37.00000  39.3%     -    1s
     0     0   37.00000    0   71   61.00000   37.00000  39.3%     -    1s
H    0     0                      60.0000000   37.00000  38.3%     -    2s
     0     0   37.00000    0   29   60.00000   37.00000  38.3%     -    2s
     0     0   37.00000    0   57   60.00000   37.00000  38.3%     -    2s
H    0     0                      59.0000000   37.00000  37.3%     -    2s
     0     0   37.00000    0   39   59.00000   37.00000  37.3%     -    2s
H    0     0                      58.0000000   37.00000  36.2%     -    3s
     0     0   37.00000    0   14   58.00000   37.00000  36.2%     -    3s
     0     0   37.00000    0   16   58.00000   37.00000  36.2%     -    3s
     0     0   37.00000    0   27   58.00000   37.00000  36.2%     -    3s
     0     0   37.00000    0   26   58.00000   37.00000  36.2%     -    3s
     0     0   37.00000    0   21   58.00000   37.00000  36.2%     -    4s
     0     0   37.00000    0   34   58.00000   37.00000  36.2%     -    4s
H    0     0                      55.0000000   37.00000  32.7%     -    4s
     0     0   37.00000    0   20   55.00000   37.00000  32.7%     -    4s
     0     0   37.00000    0   37   55.00000   37.00000  32.7%     -    4s
H    0     0                      53.0000000   37.00000  30.2%     -    4s
     0     0   37.00000    0   16   53.00000   37.00000  30.2%     -    4s
     0     0   37.00000    0   39   53.00000   37.00000  30.2%     -    4s
     0     0   37.00000    0   33   53.00000   37.00000  30.2%     -    5s
     0     0   37.00000    0   33   53.00000   37.00000  30.2%     -    5s
     0     2   37.00000    0   31   53.00000   37.00000  30.2%     -    5s
H  113   122                      53.0000000   37.00000  30.2%  38.9    6s
H  158   175                      52.0000000   37.00000  28.8%  55.0    7s
   361   304   37.00000   19   59   52.00000   37.00000  28.8%  48.1   17s
H  375   304                      51.0000000   37.00000  27.5%  47.8   17s
H  377   304                      50.0000000   37.00000  26.0%  47.8   17s
   385   455   39.16867   20   67   50.00000   37.00000  26.0%  50.0   22s
   751   634   47.00000   14   72   50.00000   37.00000  26.0%  44.8   27s
  1154   803   49.00000   26   56   50.00000   37.00000  26.0%  46.4   46s
  1700   815   46.00000   19   68   50.00000   37.00000  26.0%  41.2   56s
  1724  1315   46.00000   20   62   50.00000   37.00000  26.0%  41.5   63s
H 2061  1315                      48.0000000   37.00000  22.9%  40.9   63s
  2968  1094     cutoff   25        48.00000   37.00000  22.9%  39.5   90s
  3010  1705   37.31270   16   82   48.00000   37.00000  22.9%  39.3   99s
  5063  1706   43.00000   14   33   48.00000   37.00000  22.9%  35.7  100s
  5074  1713   42.00000   19   74   48.00000   37.00000  22.9%  35.6  105s
  5133  1772   37.00000   15   46   48.00000   37.00000  22.9%  39.1  110s
  5502  1858   39.00000   24   82   48.00000   37.00000  22.9%  42.9  118s
  5743  1838   37.03183   21  104   48.00000   37.00000  22.9%  45.2  131s
H 6092  1729                      48.0000000   37.00000  22.9%  48.1  133s
  6131  1754 infeasible   28        48.00000   37.00000  22.9%  48.3  135s
  6349  1781 infeasible   28        48.00000   37.00000  22.9%  49.8  140s
* 6401  1682              25      47.0000000   37.00000  21.3%  50.0  140s
  6755  1588   43.00000   32   85   47.00000   37.00000  21.3%  52.1  146s
  6967  1587 infeasible   27        47.00000   37.00000  21.3%  54.1  150s
H 7427  1356                      47.0000000   37.00000  21.3%  56.9  150s
  7508  1339 infeasible   27        47.00000   37.00000  21.3%  57.8  161s
  7546  1381 infeasible   28        47.00000   37.00000  21.3%  58.1  166s
  8026  1307 infeasible   22        47.00000   37.00000  21.3%  61.0  171s
  8590  1165   37.00000   20   72   47.00000   37.00000  21.3%  63.4  178s
  8766  1161   41.00000   21   71   47.00000   37.00000  21.3%  64.4  182s
  9620   983   37.00000   22   43   47.00000   37.00000  21.3%  67.1  195s
 10193  1137   46.00000   31   18   47.00000   37.00000  21.3%  69.8  200s
 11549  1096 infeasible   26        47.00000   37.00000  21.3%  74.9  206s
 11686  1118   37.00000   26   68   47.00000   37.00000  21.3%  75.4  211s
 11890  1132 infeasible   28        47.00000   37.00000  21.3%  76.0  216s
 13210  1183 infeasible   23        47.00000   37.00000  21.3%  79.2  224s
 13609  1274 infeasible   31        47.00000   37.00000  21.3%  80.7  232s
 14327  1284 infeasible   32        47.00000   37.00000  21.3%  81.5  239s
 14703  1302   43.00000   24   65   47.00000   37.00000  21.3%  82.5  245s
 15553  1349     cutoff   25        47.00000   37.00000  21.3%  83.8  258s
 16018  1362 infeasible   25        47.00000   37.00000  21.3%  84.2  263s
 17172  1435 infeasible   26        47.00000   37.00000  21.3%  85.1  274s
 17936  1447   46.00000   28   67   47.00000   37.00000  21.3%  85.8  286s
 18018  1485 infeasible   29        47.00000   37.00000  21.3%  86.0  299s
 18801  1518   37.00000   23   66   47.00000   37.00000  21.3%  87.1  305s
 20147  1521   43.00000   23   50   47.00000   37.00000  21.3%  88.8  311s
 20199  1523 infeasible   24        47.00000   37.00000  21.3%  89.0  319s
 20240  1539   37.00000   24   60   47.00000   37.00000  21.3%  89.0  325s
 20527  1543   46.00000   25   76   47.00000   37.00000  21.3%  89.4  334s
 20565  1530 infeasible   25        47.00000   37.00000  21.3%  89.4  344s
 21156  1516   37.00000   23   61   47.00000   37.00000  21.3%  90.6  354s
 21491  1437   46.00000   30   63   47.00000   37.00000  21.3%  90.5  360s
 22951  1441   43.00000   23   79   47.00000   37.00000  21.3%  90.2  372s
 22983  1420   46.00000   24   51   47.00000   37.00000  21.3%  90.2  377s
 23253  1206 infeasible   25        47.00000   37.00000  21.3%  90.0  388s
 25529  1209 infeasible   26        47.00000   37.27778  20.7%  87.6  400s
 25562  1133   43.00000   24   66   47.00000   39.00000  17.0%  87.6  406s
 27066  1124 infeasible   26        47.00000   43.00000  8.51%  86.3  423s
 27537   998   43.00000   25   39   47.00000   43.00000  8.51%  85.9  431s
 28738   990   43.00000   27   45   47.00000   43.00000  8.51%  84.5  438s
 28848   791   43.00000   28   79   47.00000   43.00000  8.51%  84.4  449s
 30988   736     cutoff   25        47.00000   43.00000  8.51%  82.3  458s
 32510   729 infeasible   29        47.00000   43.00000  8.51%  80.7  472s
 32552   744 infeasible   23        47.00000   43.00000  8.51%  80.6  480s
 33054   296 infeasible   25        47.00000   43.00000  8.51%  80.1  510s
 37807   306   46.00000   29   42   47.00000   43.00000  8.51%  75.8  536s
 37859    70 infeasible   30        47.00000   43.00000  8.51%  75.8  545s
 39664    85   45.00000   31   22   47.00000   43.00000  8.51%  74.4  580s
 40323     7   45.00000   41   62   47.00000   45.00000  4.26%  74.0  586s

Cutting planes:
  Learned: 1557
  Gomory: 6
  Lift-and-project: 25
  Cover: 96
  Implied bound: 11
  MIR: 160
  StrongCG: 5
  Flow cover: 312
  Zero half: 1
  RLT: 147
  Relax-and-lift: 121

Explored 40531 nodes (3004975 simplex iterations) in 586.69 seconds (338.95 work units)
Thread count was 18 (of 36 available processors)

Solution count 10: 47 47 47 ... 53

Optimal solution found (tolerance 1.00e-04)
Best objective 4.700000000000e+01, best bound 4.700000000000e+01, gap 0.0000%

Gurobi 11.0.0 (win64) logging started Tue Jun 18 16:53:17 2024

Set parameter LogFile to value "./Results/StripPacking-ManyRuns/Logs/SUspb-111-StripPacking-15-0.log"
Set parameter TimeLimit to value 3600
Set parameter Cuts to value 1
Set parameter Presolve to value 1
Set parameter Heuristics to value 1
Set parameter LPWarmStart to value 2
Gurobi Optimizer version 11.0.0 build v11.0.0rc2 (win64 - Windows 10.0 (19045.2))

CPU model: Intel(R) Core(TM) i9-10980XE CPU @ 3.00GHz, instruction set [SSE2|AVX|AVX2|AVX512]
Thread count: 18 physical cores, 36 logical processors, using up to 18 threads

Optimize a model with 6840 rows, 451 columns and 19770 nonzeros
Model fingerprint: 0xf3634892
Variable types: 31 continuous, 420 integer (420 binary)
Coefficient statistics:
  Matrix range     [1e+00, 1e+04]
  Objective range  [1e+00, 1e+00]
  Bounds range     [1e+00, 1e+04]
  RHS range        [1e+00, 1e+04]
Using branch priorities.

Warning: Completing partial solution with 420 unfixed non-continuous variables out of 420
User MIP start produced solution with objective 62.1 (0.02s)
User MIP start produced solution with objective 62.1 (0.02s)
Loaded user MIP start with objective 62.1

Presolve removed 210 rows and 0 columns
Presolve time: 0.05s
Presolved: 6630 rows, 451 columns, 19933 nonzeros
Variable types: 31 continuous, 420 integer (420 binary)

Root relaxation: objective 3.200000e+01, 382 iterations, 0.01 seconds (0.03 work units)

    Nodes    |    Current Node    |     Objective Bounds      |     Work
 Expl Unexpl |  Obj  Depth IntInf | Incumbent    BestBd   Gap | It/Node Time

     0     0   32.00000    0   35   62.10000   32.00000  48.5%     -    0s
H    0     0                      60.0000000   32.00000  46.7%     -    0s
H    0     0                      57.0000000   32.00000  43.9%     -    0s
H    0     0                      56.0000000   32.00000  42.9%     -    0s
H    0     0                      54.0000000   32.00000  40.7%     -    1s
     0     0   32.00000    0   60   54.00000   32.00000  40.7%     -    1s
     0     0   32.00000    0   55   54.00000   32.00000  40.7%     -    2s
     0     0   32.00000    0   51   54.00000   32.00000  40.7%     -    2s
H    0     0                      52.0000000   32.00000  38.5%     -    2s
     0     0   32.00000    0   25   52.00000   32.00000  38.5%     -    3s
     0     0   32.00000    0   43   52.00000   32.00000  38.5%     -    3s
     0     0   32.00000    0   43   52.00000   32.00000  38.5%     -    3s
H    0     0                      51.0000000   32.00000  37.3%     -    3s
     0     0   32.00000    0   37   51.00000   32.00000  37.3%     -    3s
     0     0   32.00000    0   46   51.00000   32.00000  37.3%     -    4s
     0     0   32.00000    0   39   51.00000   32.00000  37.3%     -    4s
     0     0   32.00000    0   26   51.00000   32.00000  37.3%     -    4s
     0     0   32.00000    0   37   51.00000   32.00000  37.3%     -    4s
     0     0   32.00000    0   19   51.00000   32.00000  37.3%     -    5s
     0     0   32.00000    0   30   51.00000   32.00000  37.3%     -    5s
     0     0   32.00000    0   36   51.00000   32.00000  37.3%     -    5s
     0     0   32.00000    0   45   51.00000   32.00000  37.3%     -    6s
     0     0   32.00000    0   39   51.00000   32.00000  37.3%     -    6s
     0     0   32.00000    0   39   51.00000   32.00000  37.3%     -    6s
     0     2   32.00000    0   39   51.00000   32.00000  37.3%     -    6s
H   27    32                      50.0000000   32.00000  36.0%   116    7s
H  158   175                      49.0000000   32.00000  34.7%  96.0   10s
   206   223   38.00000   12   46   49.00000   32.00000  34.7%  90.9   24s
H  207   223                      48.0000000   32.00000  33.3%  90.4   24s
H  217   223                      47.0000000   32.00000  31.9%  90.3   24s
H  223   223                      47.0000000   32.00000  31.9%  89.8   24s
   258   271   38.00000   15   82   47.00000   32.00000  31.9%  85.4   31s
   368   373   45.00000   19   53   47.00000   32.00000  31.9%  74.1   37s
   476   458 infeasible   23        47.00000   32.00000  31.9%  64.1   42s
   501   476   45.00000   24   46   47.00000   32.00000  31.9%  62.7   51s
   627   576   46.00000   29   42   47.00000   32.00000  31.9%  57.0   55s
   786   676   37.28571    7   56   47.00000   32.00000  31.9%  52.1   64s
   984   795   37.28571    9   71   47.00000   32.00000  31.9%  48.9   69s
  1010   817   37.28571   10   61   47.00000   32.00000  31.9%  48.4   70s
  1049   832   45.00000    9   84   47.00000   32.00000  31.9%  48.2   76s
  1070   908   37.28571   10   78   47.00000   32.00000  31.9%  48.3  102s
H 1118   908                      46.0000000   32.00000  30.4%  47.7  102s
  1164   911   37.28571   11   74   46.00000   32.00000  30.4%  47.4  105s
  1443  1019   37.28571   19   68   46.00000   32.00000  30.4%  46.1  147s
  1581  1097   37.28571   20  120   46.00000   32.00000  30.4%  44.6  153s
  1635  1170   37.28571   18   69   46.00000   32.00000  30.4%  44.1  162s
  1742  1335   37.28571   23  110   46.00000   32.00000  30.4%  43.7  178s
  2030  1373   37.28571   27   84   46.00000   32.00000  30.4%  42.3  196s
  2125  1414   39.85714   36   74   46.00000   32.00000  30.4%  41.9  200s
  2208  1452 infeasible   37        46.00000   32.00000  30.4%  41.4  207s
  2280  1620   34.00000    8   48   46.00000   32.00000  30.4%  41.2  212s
  2573  1666   45.00000   19   63   46.00000   32.00000  30.4%  39.9  217s
  2716  1686   34.00000   11   75   46.00000   32.00000  30.4%  39.2  240s
  2766  1922   45.00000   12   60   46.00000   32.00000  30.4%  39.1  246s
  3166  1924   45.00000   14   49   46.00000   32.00000  30.4%  37.6  250s
  3174  1930   45.00000   26   64   46.00000   32.00000  30.4%  37.5  255s
  3284  2014   38.00000   18   87   46.00000   32.00000  30.4%  48.4  260s
  3416  2056   45.00000   21   86   46.00000   32.00000  30.4%  51.3  265s
  3465  2069   45.00000   22   73   46.00000   32.00000  30.4%  52.2  279s
  3538  2094 infeasible   24        46.00000   32.00000  30.4%  52.8  281s
H 3542  1996                      46.0000000   32.00000  30.4%  52.8  281s
  3631  1998 infeasible   28        46.00000   32.00000  30.4%  53.0  304s
  3660  1999 infeasible   27        46.00000   32.00000  30.4%  53.5  310s
  3820  1996   32.09283   18  148   46.00000   32.00000  30.4%  54.8  322s
  3842  1990   38.00000   19  102   46.00000   32.00000  30.4%  55.0  329s
  3876  1981   38.00000   20   88   46.00000   32.00000  30.4%  55.1  332s
  4056  1959   43.00000   28   33   46.00000   32.00000  30.4%  55.8  349s
  4090  1991     cutoff   29        46.00000   32.00000  30.4%  55.9  353s
  4182  1985   36.00000   19   54   46.00000   32.00000  30.4%  55.8  355s
  4269  1970   39.00000   24   69   46.00000   32.00000  30.4%  56.1  366s
  4311  1960   45.00000   25   93   46.00000   32.00000  30.4%  56.4  380s
  4442  1969   45.00000   28   92   46.00000   32.32646  29.7%  57.1  386s
  4732  1917   45.00000   24   54   46.00000   33.00800  28.2%  58.8  395s
  4762  1913   45.00000   25   56   46.00000   33.00800  28.2%  59.2  400s
  5033  1917   45.00000   33   42   46.00000   33.21622  27.8%  60.5  407s
H 5066  1813                      45.0000000   33.28571  26.0%  60.6  407s
  5571  1681   43.00000   32   79   45.00000   34.00000  24.4%  61.8  415s
  5758  1685   40.00000   28   77   45.00000   35.32330  21.5%  62.4  423s
  6040  1613   43.00000   36   24   45.00000   35.32330  21.5%  62.5  429s
  6215  1581 infeasible   36        45.00000   36.00000  20.0%  62.9  436s
  6470  1525   38.00000   22   68   45.00000   36.00000  20.0%  63.1  442s
  6651  1452   39.00000   23   73   45.00000   36.00000  20.0%  63.2  454s
  6748  1503   39.00000   24   67   45.00000   36.00000  20.0%  63.3  461s
  7275  1354   39.00000   26   72   45.00000   36.00000  20.0%  63.7  467s
  7654  1236   39.00000   27   68   45.00000   36.00000  20.0%  63.7  476s
  7794  1199   39.00000   28   70   45.00000   36.00000  20.0%  63.4  481s
  8472   995   43.00000   29   50   45.00000   38.00000  15.6%  63.4  488s
  9172  1019 infeasible   24        45.00000   38.00000  15.6%  63.4  497s
 10168  1053   38.00000   36   53   45.00000   38.00000  15.6%  63.7  505s
 11042  1074 infeasible   33        45.00000   38.00000  15.6%  64.1  525s
 11521  1108     cutoff   34        45.00000   38.00000  15.6%  64.8  532s
 12637  1176     cutoff   38        45.00000   38.00000  15.6%  64.6  546s
 13443  1202 infeasible   25        45.00000   38.00000  15.6%  65.3  558s
 14202  1201   39.00000   30   73   45.00000   38.00000  15.6%  66.2  569s
 14233  1121 infeasible   31        45.00000   38.00000  15.6%  66.3  575s
 15194  1130   39.00000   27   46   45.00000   38.00000  15.6%  66.6  586s
 15494  1225   39.00000   28   48   45.00000   38.00000  15.6%  66.8  601s
 17335  1229 infeasible   22        45.00000   38.00000  15.6%  67.5  612s
 17366  1154 infeasible   27        45.00000   38.00000  15.6%  67.5  627s
 17949  1129   39.00000   19   76   45.00000   38.00000  15.6%  67.6  638s
 18901  1140   39.00000   30   70   45.00000   39.00000  13.3%  67.5  649s
 18979  1133 infeasible   31        45.00000   39.00000  13.3%  67.5  666s
 19030  1123   39.00000   28   26   45.00000   39.00000  13.3%  67.5  681s
 19373  1126   40.00000   29   35   45.00000   39.00000  13.3%  67.7  690s
 19408  1161   40.00000   30   27   45.00000   39.00000  13.3%  67.7  710s
 19800  1149   40.00000   31   21   45.00000   39.00000  13.3%  67.6  726s
 19975  1080     cutoff   26        45.00000   39.00000  13.3%  67.6  736s
 20903  1108 infeasible   41        45.00000   39.00000  13.3%  68.0  757s
 21230  1109   43.00000   38   40   45.00000   39.00000  13.3%  67.9  767s
 21496  1111   39.00000   29   57   45.00000   39.00000  13.3%  68.0  780s
 21550  1125   39.00000   30   49   45.00000   39.00000  13.3%  68.0  806s
 22042  1060 infeasible   34        45.00000   39.00000  13.3%  67.9  820s
 23725  1085     cutoff   28        45.00000   39.00000  13.3%  68.0  832s
 24200  1012   42.00000   32   55   45.00000   39.00000  13.3%  68.0  846s
 25967  1022     cutoff   37        45.00000   39.00000  13.3%  68.0  869s
 26605   929   41.00000   32   55   45.00000   40.00000  11.1%  68.4  884s
 28841   932 infeasible   31        45.00000   40.00000  11.1%  68.0  905s
 28889   898 infeasible   32        45.00000   40.00000  11.1%  68.0  929s
 29903   870   44.00000   34   53   45.00000   40.00000  11.1%  69.1  950s
 30814   850 infeasible   30        45.00000   40.00000  11.1%  69.6  978s
 31400   705 infeasible   29        45.00000   40.00000  11.1%  70.0  991s
 32228    43 infeasible   23        45.00000   41.00000  8.89%  69.9 1007s
 35436    46   43.00000   37   35   45.00000   43.00000  4.44%  68.5 1072s

Cutting planes:
  Learned: 1390
  Gomory: 7
  Lift-and-project: 32
  Cover: 96
  Implied bound: 7
  MIR: 160
  StrongCG: 2
  Flow cover: 356
  Zero half: 4
  RLT: 142
  Relax-and-lift: 216
  BQP: 1

Explored 35789 nodes (2458428 simplex iterations) in 1075.31 seconds (417.86 work units)
Thread count was 18 (of 36 available processors)

Solution count 10: 45 45 46 ... 51

Optimal solution found (tolerance 1.00e-04)
Best objective 4.500000000000e+01, best bound 4.500000000000e+01, gap 0.0000%
